NAME: random-82-11851
TYPE: TSP
COMMENT: size=82 seed=11851
DIMENSION: 166
EDGE_WEIGHT_TYPE: EUC_2D
NODE_COORD_SECTION
+0 757 873
-0 757 873
+1 919 154
-1 565 63
+2 123 540
-2 472 130
+3 683 119
-3 386 834
+4 686 502
-4 519 388
+5 144 533
-5 946 785
+6 91 115
-6 666 975
+7 706 162
-7 711 222
+8 542 603
-8 529 500
+9 570 91
-9 361 808
+10 148 204
-10 535 520
+11 248 928
-11 233 293
+12 637 170
-12 150 536
+13 909 65
-13 189 459
+14 569 10
-14 605 554
+15 935 353
-15 853 764
+16 927 365
-16 789 683
+17 571 505
-17 947 687
+18 284 700
-18 249 626
+19 916 465
-19 147 150
+20 795 199
-20 643 125
+21 984 325
-21 927 192
+22 733 688
-22 327 63
+23 882 528
-23 717 491
+24 15 903
-24 161 10
+25 902 732
-25 480 517
+26 400 880
-26 304 870
+27 743 475
-27 572 985
+28 911 193
-28 350 185
+29 71 462
-29 678 997
+30 794 669
-30 849 685
+31 399 204
-31 758 609
+32 585 1
-32 25 246
+33 475 174
-33 633 353
+34 911 956
-34 195 811
+35 619 847
-35 308 22
+36 725 222
-36 680 811
+37 496 623
-37 319 715
+38 874 20
-38 753 94
+39 792 214
-39 353 727
+40 434 644
-40 252 294
+41 146 799
-41 282 343
+42 950 720
-42 888 29
+43 389 504
-43 470 227
+44 344 462
-44 366 332
+45 761 747
-45 330 162
+46 63 785
-46 805 298
+47 465 726
-47 696 356
+48 80 529
-48 696 168
+49 464 155
-49 547 221
+50 889 358
-50 512 426
+51 956 649
-51 598 971
+52 744 665
-52 5 461
+53 617 454
-53 615 354
+54 225 496
-54 481 653
+55 585 681
-55 715 892
+56 979 871
-56 710 627
+57 648 790
-57 205 651
+58 432 481
-58 466 11
+59 919 370
-59 816 366
+60 118 688
-60 225 933
+61 944 820
-61 796 368
+62 162 993
-62 715 468
+63 500 954
-63 47 849
+64 817 26
-64 377 850
+65 122 338
-65 19 884
+66 641 506
-66 456 350
+67 67 66
-67 19 612
+68 60 926
-68 270 245
+69 166 121
-69 168 729
+70 770 914
-70 823 403
+71 780 273
-71 349 769
+72 744 737
-72 907 536
+73 527 624
-73 501 569
+74 623 288
-74 99 330
+75 706 443
-75 832 84
+76 204 261
-76 440 816
+77 45 221
-77 966 138
+78 99 880
-78 296 209
+79 142 409
-79 281 996
+80 183 634
-80 404 926
+81 579 301
-81 429 704
+82 448 453
-82 890 534
PRECEDENCE_SECTION
+0 -0
+1 -1
+2 -2
+3 -3
+4 -4
+5 -5
+6 -6
+7 -7
+8 -8
+9 -9
+10 -10
+11 -11
+12 -12
+13 -13
+14 -14
+15 -15
+16 -16
+17 -17
+18 -18
+19 -19
+20 -20
+21 -21
+22 -22
+23 -23
+24 -24
+25 -25
+26 -26
+27 -27
+28 -28
+29 -29
+30 -30
+31 -31
+32 -32
+33 -33
+34 -34
+35 -35
+36 -36
+37 -37
+38 -38
+39 -39
+40 -40
+41 -41
+42 -42
+43 -43
+44 -44
+45 -45
+46 -46
+47 -47
+48 -48
+49 -49
+50 -50
+51 -51
+52 -52
+53 -53
+54 -54
+55 -55
+56 -56
+57 -57
+58 -58
+59 -59
+60 -60
+61 -61
+62 -62
+63 -63
+64 -64
+65 -65
+66 -66
+67 -67
+68 -68
+69 -69
+70 -70
+71 -71
+72 -72
+73 -73
+74 -74
+75 -75
+76 -76
+77 -77
+78 -78
+79 -79
+80 -80
+81 -81
+82 -82
EOF
